; Property from "Case-Analysis for Rippling and Inductive Proof",
; Moa Johansson, Lucas Dixon and Alan Bundy, ITP 2010
(declare-datatype Nat ((Z) (S (proj1-S Nat))))
(define-fun-rec
  |-2|
  ((x Nat) (y Nat)) Nat
  (match x
    ((Z Z)
     ((S z)
      (match y
        ((Z x)
         ((S x2) (|-2| z x2))))))))
(prove (forall ((m Nat)) (= (|-2| m m) Z)))
